Instance: Data/Instances_txt/inst_100_10_1.txt
SetUpTime: 19.432810068130493

Gurobi 10.0.1 (mac64[x86]) logging started Mo 14 Aug 09:45:47 2023

Set parameter LogFile to value "Output/MILP_RELAXED_inst_100_10_1_2023-08-14_09-45-28.txt"

Gurobi 10.0.1 (mac64[x86]) logging started Mo 14 Aug 09:45:47 2023

Set parameter LogFile to value "Output/MILP_RELAXED_inst_100_10_1_2023-08-14_09-45-28.txt"
Gurobi Optimizer version 10.0.1 build v10.0.1rc0 (mac64[x86])

CPU model: Intel(R) Core(TM) i5-1038NG7 CPU @ 2.00GHz
Thread count: 4 physical cores, 8 logical processors, using up to 8 threads

Optimize a model with 201 rows, 22944 columns and 108117 nonzeros
Model fingerprint: 0x895460d9
Coefficient statistics:
  Matrix range     [1e+00, 1e+00]
  Objective range  [8e+00, 1e+04]
  Bounds range     [1e+00, 1e+00]
  RHS range        [1e+00, 1e+00]
Presolve removed 6 rows and 217 columns
Presolve time: 0.07s
Presolved: 195 rows, 22727 columns, 107136 nonzeros

Concurrent LP optimizer: dual simplex and barrier
Showing barrier log only...

Ordering time: 0.00s

Barrier statistics:
 AA' NZ     : 1.017e+04
 Factor NZ  : 1.831e+04 (roughly 10 MB of memory)
 Factor Ops : 2.295e+06 (less than 1 second per iteration)
 Threads    : 3

                  Objective                Residual
Iter       Primal          Dual         Primal    Dual     Compl     Time
   0   1.31229594e+07  6.17600000e+03  7.26e+02 0.00e+00  7.82e-01     0s
   1   1.43402702e+06 -6.10216776e+04  7.35e+01 7.11e-15  8.50e-02     0s
   2   3.56437735e+05 -9.97943403e+03  1.31e+01 5.33e-15  1.87e-02     0s
   3   1.81515502e+05  3.85205170e+04  3.40e+00 1.24e-14  6.78e-03     0s
   4   1.25990756e+05  7.47998595e+04  5.03e-01 8.88e-15  2.22e-03     0s
   5   1.15788917e+05  8.89379525e+04  1.64e-01 1.24e-14  1.13e-03     0s
   6   1.08745263e+05  9.56116180e+04  4.95e-02 8.88e-15  5.54e-04     0s
   7   1.05230518e+05  9.84843206e+04  2.06e-02 1.07e-14  2.85e-04     0s
   8   1.04877043e+05  9.91097897e+04  1.87e-02 1.07e-14  2.43e-04     0s
   9   1.01847424e+05  9.99154403e+04  2.55e-03 7.11e-15  8.24e-05     0s
  10   1.01379596e+05  1.00275028e+05  1.42e-03 8.88e-15  4.71e-05     0s
  11   1.00674333e+05  1.00456869e+05  5.13e-05 8.88e-15  9.33e-06     0s
  12   1.00608820e+05  1.00509645e+05  2.00e-05 1.42e-14  4.26e-06     0s
  13   1.00566737e+05  1.00536862e+05  4.84e-06 2.13e-14  1.28e-06     0s
  14   1.00552730e+05  1.00543357e+05  1.02e-06 2.84e-14  4.03e-07     0s
  15   1.00548643e+05  1.00548293e+05  5.99e-08 4.26e-14  1.51e-08     0s
  16   1.00548437e+05  1.00548318e+05  1.91e-08 4.26e-14  5.17e-09     0s
  17   1.00548330e+05  1.00548330e+05  6.25e-11 4.26e-14  5.74e-12     0s

Barrier solved model in 17 iterations and 0.41 seconds (0.12 work units)
Optimal objective 1.00548330e+05

Crossover log...

      69 DPushes remaining with DInf 0.0000000e+00                 0s
       0 DPushes remaining with DInf 0.0000000e+00                 0s

      13 PPushes remaining with PInf 0.0000000e+00                 0s
       0 PPushes remaining with PInf 0.0000000e+00                 0s

  Push phase complete: Pinf 0.0000000e+00, Dinf 8.5087493e-13      0s


Solved with barrier
Iteration    Objective       Primal Inf.    Dual Inf.      Time
      83    1.0054833e+05   0.000000e+00   0.000000e+00      0s

Solved in 83 iterations and 0.44 seconds (0.12 work units)
Optimal objective  1.005483295e+05

User-callback calls 247, time in user-callback 0.00 sec

=========================

OUTPUT STATISTICS
Relaxed: true
Time since start: 26.193135976791382
SetUpTime: 19.432810068130493
Objective value LB: 100548.32954545453
Objective value UB: 117133.0
Solving time LB: 1.3653678894042969
Solving time UB: 2.0337789058685303
Gap: 0.14158836924304397
